Welcome to the CBC MILP Solver 
Version: 2.10.12 
Build Date: Aug 20 2024 

command line - /opt/homebrew/bin/cbc computational_data/lp/ER_n40_p035_s7.lp seconds 10.0 solve solu computational_data/solutions/ER_n40_p035_s7.sol (default strategy 1)
seconds was changed from 1e+100 to 10
Continuous objective value is 4.85732 - 0.00 seconds
Cgl0003I 0 fixed, 0 tightened bounds, 513 strengthened rows, 0 substitutions
Cgl0003I 0 fixed, 0 tightened bounds, 416 strengthened rows, 0 substitutions
Cgl0003I 0 fixed, 0 tightened bounds, 233 strengthened rows, 0 substitutions
Cgl0003I 0 fixed, 0 tightened bounds, 93 strengthened rows, 0 substitutions
Cgl0003I 0 fixed, 0 tightened bounds, 43 strengthened rows, 0 substitutions
Cgl0003I 0 fixed, 0 tightened bounds, 17 strengthened rows, 0 substitutions
Cgl0003I 0 fixed, 0 tightened bounds, 3 strengthened rows, 0 substitutions
Cgl0003I 0 fixed, 0 tightened bounds, 1 strengthened rows, 0 substitutions
Cgl0003I 0 fixed, 0 tightened bounds, 1 strengthened rows, 0 substitutions
Cgl0004I processed model has 440 rows, 80 columns (80 integer (80 of which binary)) and 2876 elements
Cutoff increment increased from 1e-05 to 0.9999
Cbc0038I Initial state - 38 integers unsatisfied sum - 4.85732
Cbc0038I Pass   1: suminf.    4.85756 (38) obj. 4.85756 iterations 3
Cbc0038I Pass   2: suminf.    6.00000 (12) obj. 6 iterations 67
Cbc0038I Pass   3: suminf.    3.55556 (17) obj. 6.92593 iterations 80
Cbc0038I Pass   4: suminf.    3.22222 (19) obj. 7.22222 iterations 60
Cbc0038I Pass   5: suminf.    2.23077 (9) obj. 8.23077 iterations 59
Cbc0038I Pass   6: suminf.    0.00000 (0) obj. 9 iterations 35
Cbc0038I Solution found of 9
Cbc0038I Before mini branch and bound, 35 integers at bound fixed and 0 continuous
Cbc0038I Full problem 440 rows 80 columns, reduced to 343 rows 45 columns - 4 fixed gives 20, 8 - ok now
Cbc0038I Full problem 440 rows 80 columns, reduced to 8 rows 6 columns
Cbc0038I Mini branch and bound did not improve solution (0.04 seconds)
Cbc0038I Round again with cutoff of 7.68582
Cbc0038I Pass   7: suminf.    4.85756 (38) obj. 4.85756 iterations 0
Cbc0038I Pass   8: suminf.    5.33333 (16) obj. 6.66667 iterations 87
Cbc0038I Pass   9: suminf.    3.62325 (19) obj. 7.68582 iterations 38
Cbc0038I Pass  10: suminf.    3.31418 (11) obj. 7.68582 iterations 30
Cbc0038I Pass  11: suminf.    3.04488 (13) obj. 7.68582 iterations 81
Cbc0038I Pass  12: suminf.    2.11563 (13) obj. 7.68582 iterations 41
Cbc0038I Pass  13: suminf.    3.16065 (13) obj. 7.68582 iterations 62
Cbc0038I Pass  14: suminf.    2.49558 (17) obj. 7.29204 iterations 58
Cbc0038I Pass  15: suminf.    2.24444 (16) obj. 7.48889 iterations 24
Cbc0038I Pass  16: suminf.    2.36144 (12) obj. 7.68582 iterations 84
Cbc0038I Pass  17: suminf.    1.21482 (14) obj. 7.68582 iterations 52
Cbc0038I Pass  18: suminf.    0.75403 (10) obj. 7.68582 iterations 68
Cbc0038I Pass  19: suminf.    3.26990 (12) obj. 7.68582 iterations 70
Cbc0038I Pass  20: suminf.    2.31418 (11) obj. 7.68582 iterations 36
Cbc0038I Pass  21: suminf.    2.10496 (13) obj. 7.68582 iterations 29
Cbc0038I Pass  22: suminf.    2.56322 (11) obj. 7.68582 iterations 61
Cbc0038I Pass  23: suminf.    2.26903 (15) obj. 7.68582 iterations 74
Cbc0038I Pass  24: suminf.    3.68582 (15) obj. 7.68582 iterations 65
Cbc0038I Pass  25: suminf.    2.53923 (17) obj. 6.53923 iterations 55
Cbc0038I Pass  26: suminf.    3.31418 (9) obj. 7.68582 iterations 74
Cbc0038I Pass  27: suminf.    2.12567 (13) obj. 7.68582 iterations 65
Cbc0038I Pass  28: suminf.    3.24083 (11) obj. 7.68582 iterations 85
Cbc0038I Pass  29: suminf.    2.35135 (14) obj. 7.18919 iterations 76
Cbc0038I Pass  30: suminf.    2.64751 (8) obj. 7.68582 iterations 80
Cbc0038I Pass  31: suminf.    2.11695 (14) obj. 7.68582 iterations 72
Cbc0038I Pass  32: suminf.    3.18593 (13) obj. 7.68582 iterations 98
Cbc0038I Pass  33: suminf.    2.64751 (10) obj. 7.68582 iterations 88
Cbc0038I Pass  34: suminf.    3.22635 (11) obj. 7.68582 iterations 76
Cbc0038I Pass  35: suminf.    2.49042 (12) obj. 7.68582 iterations 61
Cbc0038I Pass  36: suminf.    2.17241 (12) obj. 7.34483 iterations 36
Cbc0038I No solution found this major pass
Cbc0038I Before mini branch and bound, 12 integers at bound fixed and 0 continuous
Cbc0038I Full problem 440 rows 80 columns, reduced to 426 rows 68 columns - 1 fixed gives 320, 52 - still too large
Cbc0038I Full problem 440 rows 80 columns, reduced to 320 rows 52 columns - too large
Cbc0038I Mini branch and bound did not improve solution (0.15 seconds)
Cbc0038I After 0.15 seconds - Feasibility pump exiting with objective of 9 - took 0.12 seconds
Cbc0012I Integer solution of 9 found by feasibility pump after 0 iterations and 0 nodes (0.15 seconds)
Cbc0038I Full problem 440 rows 80 columns, reduced to 305 rows 40 columns - 9 fixed gives 0, 0 - ok now
Cbc0031I 5 added rows had average density of 80
Cbc0013I At root node, 5 cuts changed objective from 4.8573224 to 5.0579875 in 100 passes
Cbc0014I Cut generator 0 (Probing) - 0 row cuts average 0.0 elements, 0 column cuts (0 active)  in 0.082 seconds - new frequency is -100
Cbc0014I Cut generator 1 (Gomory) - 1435 row cuts average 80.0 elements, 0 column cuts (0 active)  in 0.037 seconds - new frequency is -100
Cbc0014I Cut generator 2 (Knapsack) - 0 row cuts average 0.0 elements, 0 column cuts (0 active)  in 0.007 seconds - new frequency is -100
Cbc0014I Cut generator 3 (Clique) - 0 row cuts average 0.0 elements, 0 column cuts (0 active)  in 0.013 seconds - new frequency is -100
Cbc0014I Cut generator 4 (MixedIntegerRounding2) - 77 row cuts average 80.0 elements, 0 column cuts (0 active)  in 0.031 seconds - new frequency is -100
Cbc0014I Cut generator 5 (FlowCover) - 0 row cuts average 0.0 elements, 0 column cuts (0 active)  in 0.002 seconds - new frequency is -100
Cbc0010I After 0 nodes, 1 on tree, 9 best solution, best possible 5.0579875 (0.60 seconds)
Cbc0012I Integer solution of 8 found by DiveCoefficient after 5009 iterations and 1 nodes (0.61 seconds)
Cbc0016I Integer solution of 7 found by strong branching after 6322 iterations and 33 nodes (1.06 seconds)
Cbc0038I Full problem 440 rows 80 columns, reduced to 286 rows 41 columns - 2 fixed gives 159, 28 - ok now
Cbc0001I Search completed - best objective 7, took 8366 iterations and 78 nodes (1.44 seconds)
Cbc0032I Strong branching done 1174 times (28123 iterations), fathomed 10 nodes and fixed 5 variables
Cbc0035I Maximum depth 20, 214 variables fixed on reduced cost
Cuts at root node changed objective from 4.85732 to 5.05799
Probing was tried 100 times and created 0 cuts of which 0 were active after adding rounds of cuts (0.082 seconds)
Gomory was tried 100 times and created 1435 cuts of which 0 were active after adding rounds of cuts (0.037 seconds)
Knapsack was tried 100 times and created 0 cuts of which 0 were active after adding rounds of cuts (0.007 seconds)
Clique was tried 100 times and created 0 cuts of which 0 were active after adding rounds of cuts (0.013 seconds)
MixedIntegerRounding2 was tried 100 times and created 77 cuts of which 0 were active after adding rounds of cuts (0.031 seconds)
FlowCover was tried 100 times and created 0 cuts of which 0 were active after adding rounds of cuts (0.002 seconds)
TwoMirCuts was tried 1 times and created 0 cuts of which 0 were active after adding rounds of cuts (0.001 seconds)
ZeroHalf was tried 1 times and created 0 cuts of which 0 were active after adding rounds of cuts (0.001 seconds)

Result - Optimal solution found

Objective value:                7.00000000
Enumerated nodes:               78
Total iterations:               8366
Time (CPU seconds):             1.44
Time (Wallclock seconds):       1.49

Total time (CPU seconds):       1.44   (Wallclock seconds):       1.49

